10	5
0	1	1
1	2	3	9
2	1	4
3	1	2
4	1	11
5	2	7	8
6	1	5
7	1	11
8	1	11
9	1	11
10	2	11	2
11	0
0	0	0	0	0	0	0
1	8	1	0	5	0	2
2	3	3	3	1	3	1
3	9	0	0	0	4	0
4	10	3	2	0	2	5
5	2	3	0	3	5	4
6	2	1	2	2	3	3
7	4	4	4	2	4	5
8	1	2	1	4	2	5
9	8	5	3	0	5	0
10	3	1	0	3	0	5
11	0	0	0	0	0	0
6	6	5	6	8
